nN = 10;
nR = 30;
nH = 2;

a = [[25, 16, 17, 24, 15, 24, 24, 17, 23, 16, 21, 18, 18, 18, 18, 20, 16, 15, 25, 15, 16, 23, 22, 18, 23, 18, 19, 20, 21, 19], [16, 17, 19, 18, 17, 23, 15, 25, 25, 16, 16, 23, 21, 23, 25, 19, 16, 18, 16, 21, 24, 15, 21, 19, 20, 16, 18, 25, 20, 22], [19, 19, 15, 25, 24, 25, 16, 23, 15, 20, 16, 19, 18, 20, 15, 17, 16, 17, 21, 20, 18, 19, 22, 20, 19, 21, 18, 20, 25, 17], [17, 21, 21, 21, 19, 20, 24, 15, 21, 15, 18, 23, 18, 16, 16, 18, 24, 16, 22, 16, 22, 19, 17, 17, 22, 19, 21, 16, 24, 17], [18, 23, 23, 17, 25, 21, 22, 17, 20, 24, 18, 25, 16, 15, 16, 18, 23, 17, 25, 17, 17, 23, 24, 23, 19, 16, 16, 22, 22, 19], [24, 18, 20, 18, 19, 16, 22, 18, 19, 23, 18, 23, 21, 24, 22, 25, 21, 18, 21, 16, 21, 22, 18, 22, 15, 19, 16, 22, 16, 17], [20, 21, 15, 24, 20, 19, 16, 24, 23, 24, 22, 20, 24, 18, 24, 20, 17, 23, 17, 22, 18, 21, 25, 17, 21, 18, 24, 21, 15, 25], [15, 23, 19, 21, 17, 16, 22, 23, 16, 15, 19, 21, 15, 18, 18, 21, 25, 15, 15, 15, 20, 21, 18, 19, 18, 21, 25, 23, 25, 21], [17, 25, 16, 24, 16, 22, 16, 15, 15, 17, 25, 17, 20, 21, 16, 16, 17, 17, 25, 21, 18, 17, 20, 19, 23, 18, 17, 20, 17, 17], [17, 21, 23, 22, 23, 25, 25, 22, 24, 18, 24, 22, 15, 24, 15, 16, 19, 22, 25, 19, 24, 17, 16, 17, 17, 25, 19, 16, 23, 22]];
c = [[[0, 0, 0, 0, 0, 0, 0, 0, 0, 0, 0, 0, 0, 0, 0, 0, 0, 0, 0, 0, 0, 0, 0, 0, 0, 0, 0, 0, 0, 0], [40, 37, 32, 37, 31, 37, 44, 33, 44, 46, 30, 39, 31, 38, 33, 38, 40, 34, 34, 47, 38, 40, 33, 37, 33, 32, 37, 49, 37, 46], [40, 30, 49, 47, 49, 41, 49, 50, 42, 39, 32, 50, 35, 42, 40, 30, 45, 38, 44, 32, 36, 48, 41, 46, 45, 47, 48, 33, 31, 31], [35, 35, 42, 34, 40, 32, 49, 33, 50, 45, 34, 36, 32, 36, 39, 48, 46, 43, 30, 48, 38, 48, 49, 46, 36, 33, 31, 49, 30, 34], [47, 33, 30, 44, 45, 36, 35, 32, 36, 45, 33, 31, 41, 41, 44, 40, 46, 35, 30, 45, 48, 49, 32, 31, 40, 35, 46, 44, 30, 50], [37, 44, 47, 50, 38, 31, 43, 35, 49, 47, 39, 45, 36, 35, 35, 45, 35, 36, 38, 34, 46, 39, 41, 37, 44, 42, 48, 36, 47, 41], [36, 46, 30, 45, 33, 46, 33, 37, 42, 31, 32, 45, 43, 48, 50, 31, 31, 39, 34, 41, 41, 32, 43, 36, 47, 41, 45, 39, 30, 43], [34, 36, 49, 41, 37, 48, 30, 48, 50, 34, 44, 34, 50, 43, 49, 35, 33, 50, 40, 42, 36, 48, 31, 48, 47, 38, 39, 47, 43, 38], [38, 49, 48, 45, 39, 38, 41, 42, 37, 43, 38, 36, 50, 41, 48, 47, 49, 35, 49, 39, 39, 34, 49, 38, 35, 45, 30, 44, 35, 47], [38, 30, 38, 30, 40, 31, 38, 34, 39, 35, 34, 38, 32, 38, 39, 50, 44, 43, 49, 31, 42, 45, 44, 41, 43, 44, 40, 37, 44, 32]], [[0, 0, 0, 0, 0, 0, 0, 0, 0, 0, 0, 0, 0, 0, 0, 0, 0, 0, 0, 0, 0, 0, 0, 0, 0, 0, 0, 0, 0, 0], [0, 0, 0, 0, 0, 0, 0, 0, 0, 0, 0, 0, 0, 0, 0, 0, 0, 0, 0, 0, 0, 0, 0, 0, 0, 0, 0, 0, 0, 0], [32, 38, 43, 46, 40, 39, 49, 50, 31, 38, 49, 45, 43, 48, 46, 43, 44, 35, 43, 42, 42, 39, 41, 47, 50, 47, 49, 32, 43, 42], [39, 41, 41, 50, 33, 34, 50, 36, 42, 45, 45, 39, 31, 37, 34, 39, 42, 45, 46, 34, 31, 41, 36, 41, 30, 44, 43, 42, 41, 39], [43, 40, 39, 31, 44, 47, 50, 32, 36, 47, 39, 45, 45, 39, 48, 40, 42, 42, 46, 44, 41, 44, 49, 46, 39, 42, 30, 33, 33, 46], [39, 48, 35, 31, 47, 37, 49, 37, 32, 39, 43, 49, 44, 33, 48, 48, 50, 43, 41, 47, 45, 47, 37, 40, 49, 38, 40, 37, 49, 49], [39, 35, 41, 31, 34, 36, 37, 33, 34, 34, 42, 34, 35, 37, 42, 35, 31, 49, 37, 45, 49, 49, 37, 33, 41, 36, 48, 46, 48, 41], [48, 47, 30, 36, 32, 39, 50, 35, 33, 49, 45, 36, 42, 45, 31, 45, 49, 30, 38, 32, 39, 43, 36, 40, 50, 33, 38, 40, 49, 30], [42, 47, 36, 37, 45, 42, 39, 38, 45, 40, 43, 40, 46, 34, 46, 40, 47, 34, 46, 38, 32, 32, 43, 48, 47, 44, 31, 36, 30, 35], [31, 44, 31, 38, 30, 42, 33, 39, 37, 34, 32, 33, 45, 42, 34, 36, 36, 32, 39, 48, 46, 50, 47, 44, 42, 32, 42, 43, 38, 40]], [[0, 0, 0, 0, 0, 0, 0, 0, 0, 0, 0, 0, 0, 0, 0, 0, 0, 0, 0, 0, 0, 0, 0, 0, 0, 0, 0, 0, 0, 0], [0, 0, 0, 0, 0, 0, 0, 0, 0, 0, 0, 0, 0, 0, 0, 0, 0, 0, 0, 0, 0, 0, 0, 0, 0, 0, 0, 0, 0, 0], [0, 0, 0, 0, 0, 0, 0, 0, 0, 0, 0, 0, 0, 0, 0, 0, 0, 0, 0, 0, 0, 0, 0, 0, 0, 0, 0, 0, 0, 0], [40, 38, 32, 47, 47, 40, 40, 38, 38, 36, 36, 50, 44, 35, 44, 36, 36, 42, 37, 30, 35, 42, 46, 47, 44, 41, 46, 41, 50, 34], [45, 38, 50, 34, 36, 35, 39, 42, 31, 42, 38, 33, 39, 41, 45, 37, 42, 32, 31, 49, 33, 50, 49, 36, 31, 38, 40, 37, 43, 34], [48, 49, 48, 36, 50, 41, 50, 47, 47, 38, 42, 32, 50, 36, 39, 48, 34, 39, 41, 45, 37, 50, 43, 37, 46, 46, 40, 37, 38, 34], [40, 32, 43, 34, 40, 43, 43, 30, 46, 37, 37, 32, 39, 47, 37, 48, 47, 41, 49, 37, 34, 41, 49, 36, 40, 31, 43, 38, 50, 39], [31, 36, 30, 45, 34, 45, 49, 31, 39, 45, 43, 34, 38, 44, 32, 41, 48, 32, 40, 44, 37, 41, 46, 35, 35, 32, 33, 32, 36, 43], [43, 48, 31, 49, 40, 37, 39, 38, 38, 42, 39, 30, 50, 50, 41, 36, 45, 39, 50, 49, 34, 47, 44, 30, 44, 50, 35, 33, 46, 48], [32, 46, 50, 36, 36, 30, 40, 44, 35, 30, 31, 42, 36, 30, 44, 31, 37, 35, 34, 35, 32, 40, 41, 31, 36, 49, 32, 33, 46, 33]], [[0, 0, 0, 0, 0, 0, 0, 0, 0, 0, 0, 0, 0, 0, 0, 0, 0, 0, 0, 0, 0, 0, 0, 0, 0, 0, 0, 0, 0, 0], [0, 0, 0, 0, 0, 0, 0, 0, 0, 0, 0, 0, 0, 0, 0, 0, 0, 0, 0, 0, 0, 0, 0, 0, 0, 0, 0, 0, 0, 0], [0, 0, 0, 0, 0, 0, 0, 0, 0, 0, 0, 0, 0, 0, 0, 0, 0, 0, 0, 0, 0, 0, 0, 0, 0, 0, 0, 0, 0, 0], [0, 0, 0, 0, 0, 0, 0, 0, 0, 0, 0, 0, 0, 0, 0, 0, 0, 0, 0, 0, 0, 0, 0, 0, 0, 0, 0, 0, 0, 0], [41, 42, 43, 38, 50, 38, 33, 34, 37, 44, 36, 46, 35, 33, 32, 50, 37, 42, 38, 46, 49, 35, 47, 34, 50, 34, 34, 36, 33, 43], [33, 31, 31, 36, 42, 34, 44, 50, 36, 40, 34, 32, 38, 34, 33, 48, 49, 42, 47, 35, 32, 50, 38, 40, 34, 38, 40, 44, 34, 33], [33, 37, 38, 39, 47, 37, 49, 38, 47, 30, 38, 43, 44, 37, 31, 47, 47, 50, 34, 43, 42, 43, 48, 44, 32, 46, 36, 41, 44, 35], [48, 34, 32, 47, 41, 34, 30, 31, 50, 49, 42, 32, 36, 43, 42, 33, 45, 47, 36, 37, 40, 50, 35, 37, 34, 35, 30, 40, 32, 41], [30, 43, 32, 30, 47, 33, 48, 42, 38, 46, 42, 33, 35, 37, 33, 39, 43, 45, 44, 39, 40, 48, 39, 50, 43, 34, 35, 34, 39, 38], [35, 41, 31, 38, 48, 47, 47, 33, 44, 48, 38, 41, 48, 45, 44, 30, 34, 33, 38, 36, 49, 44, 33, 47, 31, 36, 38, 44, 37, 45]], [[0, 0, 0, 0, 0, 0, 0, 0, 0, 0, 0, 0, 0, 0, 0, 0, 0, 0, 0, 0, 0, 0, 0, 0, 0, 0, 0, 0, 0, 0], [0, 0, 0, 0, 0, 0, 0, 0, 0, 0, 0, 0, 0, 0, 0, 0, 0, 0, 0, 0, 0, 0, 0, 0, 0, 0, 0, 0, 0, 0], [0, 0, 0, 0, 0, 0, 0, 0, 0, 0, 0, 0, 0, 0, 0, 0, 0, 0, 0, 0, 0, 0, 0, 0, 0, 0, 0, 0, 0, 0], [0, 0, 0, 0, 0, 0, 0, 0, 0, 0, 0, 0, 0, 0, 0, 0, 0, 0, 0, 0, 0, 0, 0, 0, 0, 0, 0, 0, 0, 0], [0, 0, 0, 0, 0, 0, 0, 0, 0, 0, 0, 0, 0, 0, 0, 0, 0, 0, 0, 0, 0, 0, 0, 0, 0, 0, 0, 0, 0, 0], [37, 40, 33, 34, 43, 49, 37, 42, 35, 45, 45, 32, 43, 38, 39, 48, 48, 45, 45, 35, 30, 47, 38, 47, 30, 30, 36, 44, 41, 34], [41, 31, 39, 48, 33, 38, 34, 49, 46, 32, 44, 50, 36, 31, 43, 32, 48, 32, 41, 39, 34, 30, 42, 43, 45, 32, 41, 32, 48, 44], [34, 36, 33, 44, 34, 30, 45, 44, 34, 38, 36, 45, 39, 38, 37, 34, 47, 33, 50, 37, 48, 47, 36, 31, 37, 34, 42, 42, 43, 44], [46, 31, 31, 42, 36, 50, 35, 32, 43, 30, 42, 30, 50, 50, 50, 33, 39, 30, 30, 33, 41, 49, 37, 45, 47, 34, 46, 45, 46, 46], [37, 43, 45, 37, 49, 42, 34, 45, 44, 34, 31, 37, 30, 34, 38, 50, 34, 30, 34, 35, 38, 34, 36, 40, 49, 40, 33, 36, 50, 42]], [[0, 0, 0, 0, 0, 0, 0, 0, 0, 0, 0, 0, 0, 0, 0, 0, 0, 0, 0, 0, 0, 0, 0, 0, 0, 0, 0, 0, 0, 0], [0, 0, 0, 0, 0, 0, 0, 0, 0, 0, 0, 0, 0, 0, 0, 0, 0, 0, 0, 0, 0, 0, 0, 0, 0, 0, 0, 0, 0, 0], [0, 0, 0, 0, 0, 0, 0, 0, 0, 0, 0, 0, 0, 0, 0, 0, 0, 0, 0, 0, 0, 0, 0, 0, 0, 0, 0, 0, 0, 0], [0, 0, 0, 0, 0, 0, 0, 0, 0, 0, 0, 0, 0, 0, 0, 0, 0, 0, 0, 0, 0, 0, 0, 0, 0, 0, 0, 0, 0, 0], [0, 0, 0, 0, 0, 0, 0, 0, 0, 0, 0, 0, 0, 0, 0, 0, 0, 0, 0, 0, 0, 0, 0, 0, 0, 0, 0, 0, 0, 0], [0, 0, 0, 0, 0, 0, 0, 0, 0, 0, 0, 0, 0, 0, 0, 0, 0, 0, 0, 0, 0, 0, 0, 0, 0, 0, 0, 0, 0, 0], [31, 45, 42, 45, 32, 50, 38, 38, 33, 33, 39, 43, 34, 41, 47, 39, 40, 36, 40, 44, 31, 37, 46, 31, 46, 33, 41, 40, 44, 45], [33, 31, 49, 44, 31, 47, 37, 42, 41, 42, 37, 30, 50, 37, 36, 43, 44, 32, 46, 30, 30, 40, 37, 32, 32, 50, 32, 39, 33, 50], [36, 49, 30, 31, 50, 44, 45, 50, 37, 39, 45, 40, 46, 38, 43, 39, 34, 36, 49, 49, 40, 41, 45, 49, 49, 35, 43, 31, 42, 47], [31, 44, 39, 36, 43, 48, 34, 37, 40, 45, 49, 34, 35, 42, 40, 41, 42, 31, 30, 45, 46, 45, 42, 46, 40, 35, 36, 41, 47, 34]], [[0, 0, 0, 0, 0, 0, 0, 0, 0, 0, 0, 0, 0, 0, 0, 0, 0, 0, 0, 0, 0, 0, 0, 0, 0, 0, 0, 0, 0, 0], [0, 0, 0, 0, 0, 0, 0, 0, 0, 0, 0, 0, 0, 0, 0, 0, 0, 0, 0, 0, 0, 0, 0, 0, 0, 0, 0, 0, 0, 0], [0, 0, 0, 0, 0, 0, 0, 0, 0, 0, 0, 0, 0, 0, 0, 0, 0, 0, 0, 0, 0, 0, 0, 0, 0, 0, 0, 0, 0, 0], [0, 0, 0, 0, 0, 0, 0, 0, 0, 0, 0, 0, 0, 0, 0, 0, 0, 0, 0, 0, 0, 0, 0, 0, 0, 0, 0, 0, 0, 0], [0, 0, 0, 0, 0, 0, 0, 0, 0, 0, 0, 0, 0, 0, 0, 0, 0, 0, 0, 0, 0, 0, 0, 0, 0, 0, 0, 0, 0, 0], [0, 0, 0, 0, 0, 0, 0, 0, 0, 0, 0, 0, 0, 0, 0, 0, 0, 0, 0, 0, 0, 0, 0, 0, 0, 0, 0, 0, 0, 0], [0, 0, 0, 0, 0, 0, 0, 0, 0, 0, 0, 0, 0, 0, 0, 0, 0, 0, 0, 0, 0, 0, 0, 0, 0, 0, 0, 0, 0, 0], [40, 31, 49, 44, 37, 43, 32, 36, 35, 35, 44, 42, 38, 34, 45, 36, 50, 43, 46, 50, 40, 37, 36, 31, 45, 36, 38, 41, 46, 47], [34, 35, 35, 45, 32, 40, 35, 35, 44, 44, 34, 49, 30, 47, 41, 46, 45, 46, 37, 46, 45, 42, 38, 35, 36, 38, 48, 47, 35, 46], [47, 47, 46, 31, 34, 40, 39, 36, 43, 44, 45, 31, 45, 50, 46, 37, 39, 33, 46, 45, 36, 37, 40, 45, 41, 40, 33, 32, 35, 44]], [[0, 0, 0, 0, 0, 0, 0, 0, 0, 0, 0, 0, 0, 0, 0, 0, 0, 0, 0, 0, 0, 0, 0, 0, 0, 0, 0, 0, 0, 0], [0, 0, 0, 0, 0, 0, 0, 0, 0, 0, 0, 0, 0, 0, 0, 0, 0, 0, 0, 0, 0, 0, 0, 0, 0, 0, 0, 0, 0, 0], [0, 0, 0, 0, 0, 0, 0, 0, 0, 0, 0, 0, 0, 0, 0, 0, 0, 0, 0, 0, 0, 0, 0, 0, 0, 0, 0, 0, 0, 0], [0, 0, 0, 0, 0, 0, 0, 0, 0, 0, 0, 0, 0, 0, 0, 0, 0, 0, 0, 0, 0, 0, 0, 0, 0, 0, 0, 0, 0, 0], [0, 0, 0, 0, 0, 0, 0, 0, 0, 0, 0, 0, 0, 0, 0, 0, 0, 0, 0, 0, 0, 0, 0, 0, 0, 0, 0, 0, 0, 0], [0, 0, 0, 0, 0, 0, 0, 0, 0, 0, 0, 0, 0, 0, 0, 0, 0, 0, 0, 0, 0, 0, 0, 0, 0, 0, 0, 0, 0, 0], [0, 0, 0, 0, 0, 0, 0, 0, 0, 0, 0, 0, 0, 0, 0, 0, 0, 0, 0, 0, 0, 0, 0, 0, 0, 0, 0, 0, 0, 0], [0, 0, 0, 0, 0, 0, 0, 0, 0, 0, 0, 0, 0, 0, 0, 0, 0, 0, 0, 0, 0, 0, 0, 0, 0, 0, 0, 0, 0, 0], [37, 50, 37, 35, 36, 31, 37, 42, 36, 31, 32, 41, 35, 39, 44, 43, 31, 30, 31, 39, 39, 41, 47, 36, 37, 46, 39, 47, 41, 46], [33, 36, 41, 35, 48, 37, 33, 46, 40, 42, 36, 35, 42, 47, 37, 42, 42, 32, 32, 33, 48, 41, 42, 37, 38, 47, 42, 38, 50, 31]], [[0, 0, 0, 0, 0, 0, 0, 0, 0, 0, 0, 0, 0, 0, 0, 0, 0, 0, 0, 0, 0, 0, 0, 0, 0, 0, 0, 0, 0, 0], [0, 0, 0, 0, 0, 0, 0, 0, 0, 0, 0, 0, 0, 0, 0, 0, 0, 0, 0, 0, 0, 0, 0, 0, 0, 0, 0, 0, 0, 0], [0, 0, 0, 0, 0, 0, 0, 0, 0, 0, 0, 0, 0, 0, 0, 0, 0, 0, 0, 0, 0, 0, 0, 0, 0, 0, 0, 0, 0, 0], [0, 0, 0, 0, 0, 0, 0, 0, 0, 0, 0, 0, 0, 0, 0, 0, 0, 0, 0, 0, 0, 0, 0, 0, 0, 0, 0, 0, 0, 0], [0, 0, 0, 0, 0, 0, 0, 0, 0, 0, 0, 0, 0, 0, 0, 0, 0, 0, 0, 0, 0, 0, 0, 0, 0, 0, 0, 0, 0, 0], [0, 0, 0, 0, 0, 0, 0, 0, 0, 0, 0, 0, 0, 0, 0, 0, 0, 0, 0, 0, 0, 0, 0, 0, 0, 0, 0, 0, 0, 0], [0, 0, 0, 0, 0, 0, 0, 0, 0, 0, 0, 0, 0, 0, 0, 0, 0, 0, 0, 0, 0, 0, 0, 0, 0, 0, 0, 0, 0, 0], [0, 0, 0, 0, 0, 0, 0, 0, 0, 0, 0, 0, 0, 0, 0, 0, 0, 0, 0, 0, 0, 0, 0, 0, 0, 0, 0, 0, 0, 0], [0, 0, 0, 0, 0, 0, 0, 0, 0, 0, 0, 0, 0, 0, 0, 0, 0, 0, 0, 0, 0, 0, 0, 0, 0, 0, 0, 0, 0, 0], [49, 36, 43, 50, 37, 45, 34, 44, 30, 43, 50, 46, 37, 31, 40, 35, 50, 33, 34, 40, 47, 43, 33, 42, 48, 49, 48, 40, 33, 34]], [[0, 0, 0, 0, 0, 0, 0, 0, 0, 0, 0, 0, 0, 0, 0, 0, 0, 0, 0, 0, 0, 0, 0, 0, 0, 0, 0, 0, 0, 0], [0, 0, 0, 0, 0, 0, 0, 0, 0, 0, 0, 0, 0, 0, 0, 0, 0, 0, 0, 0, 0, 0, 0, 0, 0, 0, 0, 0, 0, 0], [0, 0, 0, 0, 0, 0, 0, 0, 0, 0, 0, 0, 0, 0, 0, 0, 0, 0, 0, 0, 0, 0, 0, 0, 0, 0, 0, 0, 0, 0], [0, 0, 0, 0, 0, 0, 0, 0, 0, 0, 0, 0, 0, 0, 0, 0, 0, 0, 0, 0, 0, 0, 0, 0, 0, 0, 0, 0, 0, 0], [0, 0, 0, 0, 0, 0, 0, 0, 0, 0, 0, 0, 0, 0, 0, 0, 0, 0, 0, 0, 0, 0, 0, 0, 0, 0, 0, 0, 0, 0], [0, 0, 0, 0, 0, 0, 0, 0, 0, 0, 0, 0, 0, 0, 0, 0, 0, 0, 0, 0, 0, 0, 0, 0, 0, 0, 0, 0, 0, 0], [0, 0, 0, 0, 0, 0, 0, 0, 0, 0, 0, 0, 0, 0, 0, 0, 0, 0, 0, 0, 0, 0, 0, 0, 0, 0, 0, 0, 0, 0], [0, 0, 0, 0, 0, 0, 0, 0, 0, 0, 0, 0, 0, 0, 0, 0, 0, 0, 0, 0, 0, 0, 0, 0, 0, 0, 0, 0, 0, 0], [0, 0, 0, 0, 0, 0, 0, 0, 0, 0, 0, 0, 0, 0, 0, 0, 0, 0, 0, 0, 0, 0, 0, 0, 0, 0, 0, 0, 0, 0], [0, 0, 0, 0, 0, 0, 0, 0, 0, 0, 0, 0, 0, 0, 0, 0, 0, 0, 0, 0, 0, 0, 0, 0, 0, 0, 0, 0, 0, 0]]];

q = [[[5, 109], [25, 124], [21, 121], [11, 111], [25, 109], [10, 119], [15, 107], [17, 116], [10, 116], [9, 105], [10, 123], [23, 114], [13, 115], [13, 121], [23, 115], [14, 117], [24, 111], [17, 107], [16, 112], [21, 108], [22, 112], [23, 119], [7, 111], [25, 108], [17, 116], [17, 110], [24, 116], [24, 124], [7, 112], [8, 113]], [[25, 109], [14, 109], [19, 115], [21, 118], [22, 116], [11, 116], [19, 117], [14, 111], [12, 117], [22, 116], [9, 117], [10, 116], [7, 114], [12, 122], [6, 114], [9, 123], [5, 108], [23, 108], [24, 122], [16, 107], [8, 107], [15, 114], [17, 108], [22, 117], [20, 111], [6, 111], [18, 105], [15, 114], [7, 108], [7, 115]], [[12, 106], [14, 110], [15, 121], [25, 116], [18, 122], [25, 107], [6, 113], [7, 110], [10, 105], [17, 108], [12, 114], [10, 115], [12, 113], [19, 117], [10, 123], [12, 111], [12, 118], [10, 123], [7, 106], [21, 119], [5, 117], [5, 108], [19, 121], [21, 114], [12, 125], [6, 118], [14, 117], [6, 125], [19, 105], [24, 113]], [[24, 108], [11, 113], [18, 113], [14, 111], [9, 117], [13, 115], [18, 119], [14, 115], [11, 113], [12, 124], [9, 117], [14, 107], [12, 118], [18, 111], [8, 120], [19, 116], [24, 111], [13, 105], [7, 116], [17, 117], [22, 118], [20, 118], [24, 105], [15, 122], [12, 108], [12, 125], [20, 115], [21, 107], [6, 116], [22, 123]], [[15, 112], [9, 113], [19, 120], [9, 123], [13, 116], [19, 119], [25, 107], [16, 124], [14, 107], [17, 124], [6, 111], [9, 124], [15, 117], [12, 125], [20, 105], [21, 107], [9, 116], [17, 118], [19, 107], [14, 110], [23, 107], [19, 120], [25, 125], [22, 121], [13, 120], [14, 123], [14, 106], [23, 124], [15, 117], [23, 124]], [[25, 122], [22, 116], [12, 106], [6, 120], [11, 121], [25, 106], [15, 108], [13, 105], [13, 107], [9, 125], [9, 105], [13, 125], [19, 112], [10, 118], [18, 114], [23, 124], [14, 105], [8, 112], [9, 112], [19, 113], [15, 109], [21, 123], [10, 120], [5, 122], [23, 107], [17, 115], [22, 119], [11, 117], [17, 125], [5, 122]], [[20, 107], [10, 119], [18, 116], [7, 117], [12, 113], [14, 105], [12, 122], [18, 107], [8, 110], [25, 124], [25, 120], [14, 121], [16, 112], [25, 121], [23, 124], [5, 111], [22, 118], [22, 114], [7, 125], [24, 108], [12, 107], [13, 121], [5, 120], [8, 122], [12, 118], [25, 105], [24, 119], [19, 110], [15, 119], [14, 109]], [[15, 120], [18, 111], [21, 124], [17, 119], [7, 111], [5, 122], [10, 121], [10, 106], [25, 107], [13, 113], [23, 118], [10, 122], [7, 116], [7, 125], [20, 105], [18, 113], [21, 106], [12, 109], [24, 113], [10, 123], [7, 118], [25, 109], [20, 110], [13, 116], [19, 118], [18, 117], [16, 119], [7, 112], [9, 105], [6, 106]], [[20, 120], [21, 108], [9, 108], [22, 113], [18, 123], [7, 108], [5, 109], [21, 111], [15, 118], [13, 123], [8, 105], [23, 111], [21, 109], [21, 118], [17, 120], [11, 120], [24, 107], [11, 116], [12, 118], [15, 117], [19, 114], [8, 106], [7, 122], [8, 116], [18, 121], [22, 110], [18, 124], [12, 114], [18, 110], [17, 124]], [[14, 116], [6, 116], [10, 115], [23, 122], [12, 110], [23, 121], [12, 122], [9, 108], [20, 116], [25, 108], [24, 115], [23, 120], [20, 109], [12, 118], [25, 115], [17, 119], [18, 105], [20, 121], [18, 125], [25, 124], [17, 108], [20, 121], [19, 124], [12, 109], [5, 125], [6, 105], [10, 119], [5, 112], [7, 106], [15, 110]]];
Q = [[40, 274], [30, 273], [32, 276], [37, 276], [39, 280], [35, 277], [38, 278], [34, 275], [36, 276], [37, 278]];
